60
1 0 2
2 0 3
2 1 4
3 0 2
3 1 5
3 2 4
4 0 2
4 1 4
4 2 4
4 3 1
5 0 5
5 1 4
5 2 1
5 3 4
5 4 1
6 0 4
6 1 2
6 2 2
6 3 2
6 4 3
6 5 2
7 0 2
7 1 3
7 2 2
7 3 2
7 4 5
7 5 2
7 6 1
8 0 2
8 1 1
8 2 4
8 3 4
8 4 5
8 5 2
8 6 3
8 7 2
9 0 2
9 1 2
9 2 5
9 3 3
9 4 3
9 5 5
9 6 5
9 7 5
9 8 3
10 0 5
10 1 5
10 2 2
10 3 5
10 4 5
10 5 5
10 6 5
10 7 5
10 8 1
10 9 3
11 0 5
11 1 3
11 2 2
11 3 2
11 4 5
11 5 1
11 6 5
11 7 5
11 8 1
11 9 2
11 10 1
12 0 3
12 1 4
12 2 5
12 3 5
12 4 3
12 5 4
12 6 4
12 7 1
12 8 1
12 9 1
12 10 1
12 11 3
13 0 5
13 1 1
13 2 1
13 3 4
13 4 1
13 5 5
13 6 5
13 7 3
13 8 2
13 9 5
13 10 3
13 11 5
13 12 5
14 0 3
14 1 4
14 2 3
14 3 3
14 4 2
14 5 3
14 6 1
14 7 3
14 8 5
14 9 3
14 10 4
14 11 3
14 12 3
14 13 3
15 0 2
15 1 3
15 2 4
15 3 2
15 4 4
15 5 3
15 6 4
15 7 1
15 8 5
15 9 3
15 10 2
15 11 2
15 12 5
15 13 1
15 14 4
16 0 1
16 1 4
16 2 2
16 3 2
16 4 3
16 5 3
16 6 2
16 7 3
16 8 5
16 9 5
16 10 5
16 11 4
16 12 1
16 13 1
16 14 3
16 15 5
17 0 5
17 1 2
17 2 2
17 3 2
17 4 5
17 5 4
17 6 4
17 7 3
17 8 2
17 9 1
17 10 1
17 11 4
17 12 1
17 13 5
17 14 4
17 15 1
17 16 1
18 0 2
18 1 1
18 2 1
18 3 2
18 4 4
18 5 5
18 6 3
18 7 1
18 8 3
18 9 4
18 10 3
18 11 5
18 12 2
18 13 4
18 14 3
18 15 4
18 16 1
18 17 5
19 0 5
19 1 4
19 2 2
19 3 3
19 4 5
19 5 4
19 6 4
19 7 3
19 8 4
19 9 3
19 10 4
19 11 2
19 12 4
19 13 4
19 14 5
19 15 4
19 16 5
19 17 3
19 18 4
20 0 2
20 1 4
20 2 5
20 3 4
20 4 3
20 5 3
20 6 4
20 7 4
20 8 4
20 9 2
20 10 4
20 11 5
20 12 3
20 13 3
20 14 4
20 15 2
20 16 3
20 17 4
20 18 5
20 19 3
21 0 4
21 1 1
21 2 1
21 3 2
21 4 3
21 5 1
21 6 4
21 7 1
21 8 2
21 9 4
21 10 3
21 11 1
21 12 5
21 13 4
21 14 4
21 15 5
21 16 1
21 17 1
21 18 2
21 19 5
21 20 4
22 0 3
22 1 1
22 2 4
22 3 2
22 4 5
22 5 5
22 6 1
22 7 3
22 8 5
22 9 2
22 10 3
22 11 3
22 12 4
22 13 4
22 14 3
22 15 2
22 16 1
22 17 5
22 18 3
22 19 2
22 20 3
22 21 1
23 0 2
23 1 2
23 2 4
23 3 5
23 4 1
23 5 5
23 6 1
23 7 1
23 8 5
23 9 3
23 10 4
23 11 1
23 12 1
23 13 5
23 14 3
23 15 2
23 16 4
23 17 5
23 18 1
23 19 3
23 20 5
23 21 2
23 22 4
24 0 1
24 1 3
24 2 2
24 3 1
24 4 5
24 5 3
24 6 1
24 7 1
24 8 5
24 9 5
24 10 1
24 11 5
24 12 2
24 13 5
24 14 1
24 15 5
24 16 3
24 17 2
24 18 4
24 19 3
24 20 2
24 21 5
24 22 4
24 23 5
25 0 1
25 1 1
25 2 4
25 3 5
25 4 4
25 5 3
25 6 4
25 7 3
25 8 5
25 9 3
25 10 3
25 11 3
25 12 5
25 13 1
25 14 3
25 15 5
25 16 1
25 17 1
25 18 3
25 19 5
25 20 1
25 21 5
25 22 4
25 23 3
25 24 4
26 0 3
26 1 2
26 2 1
26 3 4
26 4 4
26 5 5
26 6 1
26 7 1
26 8 5
26 9 3
26 10 1
26 11 4
26 12 3
26 13 2
26 14 2
26 15 1
26 16 4
26 17 4
26 18 5
26 19 1
26 20 1
26 21 4
26 22 2
26 23 5
26 24 5
26 25 3
27 0 2
27 1 3
27 2 5
27 3 4
27 4 4
27 5 4
27 6 4
27 7 5
27 8 4
27 9 2
27 10 5
27 11 4
27 12 2
27 13 1
27 14 2
27 15 5
27 16 1
27 17 1
27 18 4
27 19 4
27 20 4
27 21 5
27 22 4
27 23 5
27 24 5
27 25 4
27 26 5
28 0 4
28 1 4
28 2 3
28 3 3
28 4 1
28 5 3
28 6 2
28 7 4
28 8 3
28 9 5
28 10 5
28 11 5
28 12 5
28 13 1
28 14 2
28 15 5
28 16 5
28 17 2
28 18 1
28 19 3
28 20 2
28 21 2
28 22 1
28 23 5
28 24 4
28 25 4
28 26 3
28 27 1
29 0 1
29 1 3
29 2 1
29 3 5
29 4 2
29 5 3
29 6 3
29 7 1
29 8 3
29 9 4
29 10 2
29 11 1
29 12 4
29 13 5
29 14 2
29 15 4
29 16 5
29 17 5
29 18 1
29 19 2
29 20 3
29 21 4
29 22 2
29 23 1
29 24 4
29 25 2
29 26 3
29 27 5
29 28 1
30 0 2
30 1 2
30 2 4
30 3 1
30 4 5
30 5 1
30 6 2
30 7 1
30 8 1
30 9 3
30 10 4
30 11 4
30 12 2
30 13 3
30 14 4
30 15 2
30 16 4
30 17 3
30 18 5
30 19 3
30 20 2
30 21 4
30 22 3
30 23 5
30 24 4
30 25 3
30 26 2
30 27 1
30 28 2
30 29 5
31 0 4
31 1 1
31 2 2
31 3 1
31 4 5
31 5 2
31 6 2
31 7 5
31 8 2
31 9 1
31 10 4
31 11 1
31 12 3
31 13 4
31 14 3
31 15 1
31 16 1
31 17 5
31 18 1
31 19 5
31 20 5
31 21 4
31 22 4
31 23 3
31 24 5
31 25 2
31 26 4
31 27 5
31 28 3
31 29 2
31 30 1
32 0 3
32 1 3
32 2 5
32 3 2
32 4 4
32 5 1
32 6 3
32 7 4
32 8 4
32 9 5
32 10 3
32 11 3
32 12 1
32 13 5
32 14 5
32 15 1
32 16 5
32 17 4
32 18 3
32 19 1
32 20 5
32 21 2
32 22 4
32 23 2
32 24 4
32 25 1
32 26 3
32 27 3
32 28 4
32 29 2
32 30 2
32 31 2
33 0 5
33 1 2
33 2 5
33 3 2
33 4 5
33 5 5
33 6 4
33 7 4
33 8 1
33 9 5
33 10 3
33 11 4
33 12 5
33 13 5
33 14 3
33 15 1
33 16 3
33 17 5
33 18 2
33 19 1
33 20 1
33 21 1
33 22 5
33 23 1
33 24 4
33 25 3
33 26 1
33 27 3
33 28 5
33 29 1
33 30 3
33 31 3
33 32 3
34 0 3
34 1 4
34 2 3
34 3 5
34 4 2
34 5 4
34 6 3
34 7 1
34 8 4
34 9 2
34 10 1
34 11 5
34 12 4
34 13 1
34 14 2
34 15 3
34 16 1
34 17 1
34 18 5
34 19 2
34 20 1
34 21 3
34 22 5
34 23 2
34 24 3
34 25 5
34 26 2
34 27 3
34 28 4
34 29 5
34 30 1
34 31 4
34 32 2
34 33 5
35 0 3
35 1 1
35 2 4
35 3 3
35 4 2
35 5 2
35 6 4
35 7 1
35 8 3
35 9 3
35 10 1
35 11 2
35 12 1
35 13 4
35 14 4
35 15 1
35 16 5
35 17 1
35 18 4
35 19 5
35 20 3
35 21 2
35 22 3
35 23 5
35 24 2
35 25 1
35 26 5
35 27 5
35 28 3
35 29 2
35 30 1
35 31 1
35 32 4
35 33 2
35 34 5
36 0 4
36 1 3
36 2 1
36 3 2
36 4 2
36 5 2
36 6 5
36 7 4
36 8 1
36 9 1
36 10 4
36 11 1
36 12 2
36 13 3
36 14 1
36 15 5
36 16 3
36 17 3
36 18 2
36 19 1
36 20 4
36 21 3
36 22 1
36 23 5
36 24 4
36 25 4
36 26 1
36 27 5
36 28 3
36 29 3
36 30 2
36 31 1
36 32 2
36 33 4
36 34 2
36 35 1
37 0 1
37 1 3
37 2 2
37 3 1
37 4 1
37 5 4
37 6 2
37 7 4
37 8 5
37 9 5
37 10 5
37 11 3
37 12 2
37 13 3
37 14 5
37 15 2
37 16 2
37 17 1
37 18 1
37 19 3
37 20 4
37 21 4
37 22 3
37 23 3
37 24 5
37 25 2
37 26 4
37 27 3
37 28 2
37 29 4
37 30 1
37 31 1
37 32 2
37 33 4
37 34 5
37 35 3
37 36 5
38 0 3
38 1 5
38 2 1
38 3 5
38 4 3
38 5 3
38 6 5
38 7 5
38 8 3
38 9 4
38 10 2
38 11 5
38 12 1
38 13 1
38 14 2
38 15 2
38 16 1
38 17 5
38 18 5
38 19 1
38 20 1
38 21 4
38 22 2
38 23 4
38 24 2
38 25 2
38 26 3
38 27 3
38 28 4
38 29 1
38 30 4
38 31 5
38 32 1
38 33 2
38 34 5
38 35 3
38 36 5
38 37 2
39 0 3
39 1 2
39 2 3
39 3 5
39 4 3
39 5 1
39 6 2
39 7 5
39 8 1
39 9 4
39 10 4
39 11 2
39 12 4
39 13 4
39 14 5
39 15 1
39 16 3
39 17 3
39 18 2
39 19 2
39 20 5
39 21 3
39 22 2
39 23 2
39 24 2
39 25 5
39 26 3
39 27 1
39 28 2
39 29 4
39 30 5
39 31 2
39 32 3
39 33 2
39 34 2
39 35 1
39 36 4
39 37 2
39 38 2
40 0 2
40 1 4
40 2 3
40 3 4
40 4 5
40 5 2
40 6 4
40 7 3
40 8 1
40 9 2
40 10 1
40 11 2
40 12 1
40 13 5
40 14 5
40 15 3
40 16 3
40 17 5
40 18 4
40 19 4
40 20 5
40 21 1
40 22 3
40 23 2
40 24 4
40 25 1
40 26 1
40 27 5
40 28 4
40 29 5
40 30 3
40 31 3
40 32 3
40 33 2
40 34 4
40 35 5
40 36 3
40 37 1
40 38 5
40 39 3
41 0 4
41 1 1
41 2 3
41 3 2
41 4 4
41 5 3
41 6 3
41 7 4
41 8 4
41 9 4
41 10 2
41 11 4
41 12 5
41 13 4
41 14 1
41 15 4
41 16 2
41 17 4
41 18 4
41 19 2
41 20 5
41 21 1
41 22 5
41 23 1
41 24 5
41 25 3
41 26 5
41 27 4
41 28 5
41 29 1
41 30 2
41 31 1
41 32 2
41 33 5
41 34 5
41 35 3
41 36 5
41 37 5
41 38 2
41 39 5
41 40 3
42 0 3
42 1 2
42 2 3
42 3 1
42 4 3
42 5 3
42 6 5
42 7 5
42 8 3
42 9 4
42 10 4
42 11 3
42 12 5
42 13 1
42 14 2
42 15 3
42 16 3
42 17 2
42 18 4
42 19 4
42 20 5
42 21 4
42 22 1
42 23 3
42 24 3
42 25 3
42 26 4
42 27 1
42 28 1
42 29 2
42 30 1
42 31 5
42 32 1
42 33 1
42 34 1
42 35 2
42 36 4
42 37 2
42 38 2
42 39 4
42 40 4
42 41 2
43 0 2
43 1 5
43 2 4
43 3 3
43 4 1
43 5 3
43 6 3
43 7 2
43 8 1
43 9 3
43 10 3
43 11 2
43 12 1
43 13 2
43 14 2
43 15 2
43 16 2
43 17 1
43 18 1
43 19 3
43 20 2
43 21 5
43 22 2
43 23 2
43 24 5
43 25 4
43 26 1
43 27 4
43 28 3
43 29 1
43 30 1
43 31 1
43 32 3
43 33 3
43 34 3
43 35 5
43 36 4
43 37 4
43 38 3
43 39 5
43 40 5
43 41 2
43 42 3
44 0 1
44 1 5
44 2 1
44 3 5
44 4 5
44 5 5
44 6 5
44 7 3
44 8 5
44 9 3
44 10 4
44 11 3
44 12 1
44 13 1
44 14 1
44 15 2
44 16 2
44 17 2
44 18 5
44 19 1
44 20 1
44 21 4
44 22 1
44 23 1
44 24 2
44 25 1
44 26 5
44 27 2
44 28 3
44 29 3
44 30 2
44 31 3
44 32 4
44 33 1
44 34 3
44 35 2
44 36 1
44 37 1
44 38 1
44 39 2
44 40 5
44 41 4
44 42 4
44 43 2
45 0 5
45 1 5
45 2 5
45 3 1
45 4 4
45 5 1
45 6 4
45 7 3
45 8 4
45 9 2
45 10 2
45 11 4
45 12 4
45 13 2
45 14 1
45 15 3
45 16 4
45 17 2
45 18 3
45 19 4
45 20 4
45 21 3
45 22 4
45 23 3
45 24 1
45 25 4
45 26 5
45 27 3
45 28 1
45 29 3
45 30 1
45 31 5
45 32 1
45 33 5
45 34 2
45 35 2
45 36 3
45 37 5
45 38 1
45 39 2
45 40 4
45 41 3
45 42 4
45 43 3
45 44 5
46 0 5
46 1 3
46 2 4
46 3 1
46 4 2
46 5 3
46 6 5
46 7 3
46 8 2
46 9 1
46 10 5
46 11 1
46 12 3
46 13 2
46 14 2
46 15 2
46 16 5
46 17 5
46 18 1
46 19 1
46 20 3
46 21 1
46 22 5
46 23 2
46 24 3
46 25 1
46 26 1
46 27 3
46 28 3
46 29 5
46 30 5
46 31 4
46 32 1
46 33 3
46 34 3
46 35 2
46 36 5
46 37 4
46 38 3
46 39 1
46 40 2
46 41 5
46 42 2
46 43 1
46 44 1
46 45 3
47 0 1
47 1 1
47 2 1
47 3 1
47 4 4
47 5 5
47 6 4
47 7 5
47 8 4
47 9 2
47 10 5
47 11 3
47 12 4
47 13 1
47 14 2
47 15 3
47 16 5
47 17 4
47 18 5
47 19 4
47 20 3
47 21 5
47 22 4
47 23 2
47 24 2
47 25 5
47 26 3
47 27 2
47 28 2
47 29 5
47 30 4
47 31 4
47 32 3
47 33 5
47 34 2
47 35 4
47 36 5
47 37 3
47 38 4
47 39 1
47 40 5
47 41 5
47 42 5
47 43 1
47 44 3
47 45 4
47 46 3
48 0 5
48 1 4
48 2 3
48 3 4
48 4 3
48 5 5
48 6 5
48 7 5
48 8 1
48 9 4
48 10 1
48 11 1
48 12 5
48 13 4
48 14 2
48 15 4
48 16 1
48 17 1
48 18 1
48 19 2
48 20 4
48 21 4
48 22 4
48 23 3
48 24 2
48 25 4
48 26 5
48 27 1
48 28 4
48 29 2
48 30 3
48 31 1
48 32 5
48 33 2
48 34 4
48 35 3
48 36 2
48 37 3
48 38 4
48 39 5
48 40 3
48 41 4
48 42 4
48 43 3
48 44 2
48 45 2
48 46 3
48 47 1
49 0 2
49 1 5
49 2 4
49 3 5
49 4 3
49 5 2
49 6 4
49 7 3
49 8 2
49 9 4
49 10 1
49 11 5
49 12 3
49 13 4
49 14 5
49 15 2
49 16 1
49 17 4
49 18 4
49 19 2
49 20 3
49 21 3
49 22 3
49 23 1
49 24 2
49 25 4
49 26 3
49 27 2
49 28 5
49 29 1
49 30 5
49 31 4
49 32 1
49 33 1
49 34 2
49 35 4
49 36 1
49 37 5
49 38 1
49 39 3
49 40 3
49 41 3
49 42 5
49 43 4
49 44 1
49 45 3
49 46 4
49 47 3
49 48 1
50 0 5
50 1 3
50 2 5
50 3 4
50 4 2
50 5 1
50 6 5
50 7 5
50 8 4
50 9 5
50 10 2
50 11 3
50 12 4
50 13 5
50 14 2
50 15 3
50 16 3
50 17 4
50 18 2
50 19 4
50 20 1
50 21 1
50 22 4
50 23 2
50 24 5
50 25 2
50 26 5
50 27 3
50 28 2
50 29 3
50 30 4
50 31 1
50 32 1
50 33 2
50 34 1
50 35 1
50 36 1
50 37 1
50 38 3
50 39 2
50 40 2
50 41 4
50 42 3
50 43 2
50 44 1
50 45 3
50 46 4
50 47 3
50 48 3
50 49 2
51 0 5
51 1 4
51 2 3
51 3 5
51 4 2
51 5 3
51 6 2
51 7 4
51 8 2
51 9 5
51 10 1
51 11 5
51 12 1
51 13 1
51 14 3
51 15 3
51 16 2
51 17 4
51 18 2
51 19 4
51 20 3
51 21 1
51 22 3
51 23 1
51 24 5
51 25 3
51 26 1
51 27 4
51 28 4
51 29 2
51 30 4
51 31 1
51 32 5
51 33 3
51 34 2
51 35 3
51 36 1
51 37 2
51 38 2
51 39 4
51 40 1
51 41 4
51 42 1
51 43 2
51 44 2
51 45 5
51 46 1
51 47 2
51 48 5
51 49 5
51 50 3
52 0 3
52 1 5
52 2 2
52 3 3
52 4 2
52 5 1
52 6 1
52 7 3
52 8 3
52 9 5
52 10 3
52 11 4
52 12 3
52 13 2
52 14 5
52 15 2
52 16 1
52 17 2
52 18 1
52 19 4
52 20 1
52 21 4
52 22 1
52 23 3
52 24 2
52 25 3
52 26 5
52 27 3
52 28 4
52 29 5
52 30 4
52 31 5
52 32 3
52 33 5
52 34 3
52 35 3
52 36 3
52 37 2
52 38 4
52 39 5
52 40 3
52 41 4
52 42 3
52 43 2
52 44 4
52 45 3
52 46 4
52 47 2
52 48 4
52 49 4
52 50 4
52 51 5
53 0 3
53 1 5
53 2 3
53 3 3
53 4 2
53 5 1
53 6 2
53 7 1
53 8 2
53 9 4
53 10 2
53 11 3
53 12 3
53 13 3
53 14 5
53 15 4
53 16 5
53 17 5
53 18 4
53 19 2
53 20 1
53 21 5
53 22 2
53 23 2
53 24 2
53 25 3
53 26 1
53 27 5
53 28 5
53 29 1
53 30 4
53 31 1
53 32 3
53 33 4
53 34 5
53 35 5
53 36 4
53 37 3
53 38 1
53 39 1
53 40 5
53 41 2
53 42 3
53 43 4
53 44 5
53 45 1
53 46 5
53 47 1
53 48 1
53 49 1
53 50 1
53 51 2
53 52 2
54 0 4
54 1 2
54 2 3
54 3 2
54 4 4
54 5 5
54 6 4
54 7 1
54 8 2
54 9 3
54 10 2
54 11 5
54 12 2
54 13 4
54 14 2
54 15 4
54 16 3
54 17 5
54 18 5
54 19 1
54 20 1
54 21 5
54 22 5
54 23 5
54 24 1
54 25 5
54 26 4
54 27 1
54 28 3
54 29 2
54 30 3
54 31 3
54 32 4
54 33 3
54 34 3
54 35 4
54 36 2
54 37 4
54 38 4
54 39 4
54 40 5
54 41 2
54 42 3
54 43 5
54 44 4
54 45 5
54 46 1
54 47 3
54 48 3
54 49 5
54 50 2
54 51 4
54 52 5
54 53 3
55 0 1
55 1 5
55 2 5
55 3 1
55 4 4
55 5 2
55 6 4
55 7 4
55 8 2
55 9 2
55 10 5
55 11 2
55 12 2
55 13 5
55 14 5
55 15 4
55 16 4
55 17 1
55 18 1
55 19 4
55 20 5
55 21 1
55 22 4
55 23 3
55 24 3
55 25 5
55 26 1
55 27 1
55 28 3
55 29 1
55 30 5
55 31 3
55 32 5
55 33 3
55 34 5
55 35 5
55 36 4
55 37 1
55 38 2
55 39 4
55 40 4
55 41 3
55 42 4
55 43 4
55 44 5
55 45 3
55 46 5
55 47 3
55 48 1
55 49 2
55 50 5
55 51 5
55 52 1
55 53 4
55 54 1
56 0 1
56 1 5
56 2 1
56 3 3
56 4 2
56 5 4
56 6 5
56 7 4
56 8 3
56 9 5
56 10 5
56 11 4
56 12 3
56 13 3
56 14 4
56 15 5
56 16 2
56 17 2
56 18 3
56 19 5
56 20 3
56 21 4
56 22 1
56 23 5
56 24 5
56 25 2
56 26 4
56 27 2
56 28 3
56 29 5
56 30 5
56 31 3
56 32 5
56 33 4
56 34 4
56 35 1
56 36 2
56 37 5
56 38 3
56 39 3
56 40 3
56 41 3
56 42 1
56 43 4
56 44 1
56 45 1
56 46 1
56 47 1
56 48 1
56 49 5
56 50 3
56 51 3
56 52 3
56 53 4
56 54 2
56 55 4
57 0 2
57 1 1
57 2 4
57 3 3
57 4 5
57 5 2
57 6 5
57 7 5
57 8 1
57 9 4
57 10 2
57 11 3
57 12 5
57 13 1
57 14 4
57 15 1
57 16 5
57 17 3
57 18 5
57 19 4
57 20 4
57 21 4
57 22 5
57 23 5
57 24 1
57 25 3
57 26 2
57 27 1
57 28 4
57 29 5
57 30 3
57 31 5
57 32 4
57 33 1
57 34 2
57 35 2
57 36 4
57 37 2
57 38 3
57 39 3
57 40 3
57 41 5
57 42 3
57 43 2
57 44 5
57 45 4
57 46 5
57 47 3
57 48 2
57 49 2
57 50 3
57 51 2
57 52 2
57 53 4
57 54 5
57 55 3
57 56 4
58 0 1
58 1 2
58 2 2
58 3 3
58 4 3
58 5 3
58 6 3
58 7 5
58 8 2
58 9 5
58 10 5
58 11 5
58 12 3
58 13 2
58 14 5
58 15 2
58 16 2
58 17 4
58 18 3
58 19 5
58 20 1
58 21 1
58 22 5
58 23 3
58 24 3
58 25 2
58 26 4
58 27 2
58 28 5
58 29 2
58 30 3
58 31 5
58 32 3
58 33 1
58 34 4
58 35 3
58 36 3
58 37 5
58 38 3
58 39 4
58 40 4
58 41 5
58 42 3
58 43 5
58 44 5
58 45 3
58 46 5
58 47 5
58 48 3
58 49 3
58 50 1
58 51 4
58 52 2
58 53 5
58 54 2
58 55 1
58 56 4
58 57 5
59 0 5
59 1 1
59 2 5
59 3 2
59 4 1
59 5 3
59 6 4
59 7 4
59 8 1
59 9 1
59 10 3
59 11 1
59 12 1
59 13 1
59 14 4
59 15 4
59 16 1
59 17 1
59 18 3
59 19 1
59 20 3
59 21 1
59 22 1
59 23 4
59 24 2
59 25 4
59 26 5
59 27 4
59 28 4
59 29 1
59 30 1
59 31 5
59 32 2
59 33 4
59 34 1
59 35 2
59 36 4
59 37 3
59 38 1
59 39 3
59 40 5
59 41 2
59 42 5
59 43 4
59 44 5
59 45 2
59 46 5
59 47 1
59 48 4
59 49 5
59 50 5
59 51 2
59 52 4
59 53 1
59 54 3
59 55 2
59 56 3
59 57 4
59 58 5
